\ LP format - for model browsing. Use MPS format to capture full model detail.
Minimize
  0 B18(0) + 0 B28(0) + 0 B38(0) + 0 B45(0) + 0 B46(0) + 0 B47(0) + 0 B48(0)
   + 0 B54(0) + 0 B55(0) + 0 B56(0) + 0 B58(0) + 0 B63(0) + 0 B64(0)
   + 0 B65(0) + 0 B68(0) + 0 B72(0) + 0 B73(0) + 0 B74(0) + 0 B75(0)
   + 0 B76(0) + 0 B77(0) + 0 B78(0) + 0 B79(0) + 0 B80(0) + 0 B81(0)
   + 0 B82(0) + 0 B83(0) + 0 B84(0) + 0 B85(0) + 0 B86(0) + 0 B87(0)
   + 0 B88(0) + 0 B89(0) + 0 B90(0) + 0 B91(0) + 0 B92(0) + 0 B93(0)
   + 0 B94(0) + 0 B95(0) + 0 B96(0) + 0 B97(0) + 0 B98(0) + I117(1)
Subject To
 c0: B0(16) + B1(24) = 1
 c1: B2(16) + B3(24) = 1
 c2: B4(23) + B5(12) = 1
 c3: B6(15) + B7(15) = 1
 c4: B8(16) + B9(21) = 1
 c5: B10(21) + B11(14) = 1
 c6: B12(12) + B13(14) = 1
 c7: B14(16) + B15(11) = 1
 c8: B16(14) + B17(10) = 1
 c9: - 17 B0(16) - 25 B1(24) - I99(16) - I100(24) + I101(18) + I102(26)
   >= 0
 c10: - 1.000000017e+09 B0(16) - 25 B1(24) - 1e+09 B2(16) - I99(16)
   - I100(24) + I101(18) + I102(26) >= -1.999999993e+09
 c11: - 17 B0(16) - 1.000000025e+09 B1(24) - 1e+09 B3(24) - I99(16)
   - I100(24) + I101(18) + I102(26) >= -1.999999995e+09
 c12: - 40 B2(16) - 30 B3(24) - I101(18) - I102(26) + I103(24) + I104(14)
   >= 0
 c13: - 40 B2(16) - 1.00000003e+09 B3(24) - 1e+09 B4(23) - I101(18)
   - I102(26) + I103(24) + I104(14) >= -1.999999994e+09
 c14: - 30 B6(15) - 50 B7(15) - I105(15) - I106(15) + I107(17) + I108(23)
   >= 0
 c15: - 1.00000003e+09 B6(15) - 50 B7(15) - 1e+09 B8(16) - I105(15)
   - I106(15) + I107(17) + I108(23) >= -1.999999993e+09
 c16: - 50 B8(16) - 60 B9(21) - I107(17) - I108(23) + I109(22) + I110(16)
   >= 0
 c17: - 50 B8(16) - 1.00000006e+09 B9(21) - 1e+09 B10(21) - I107(17)
   - I108(23) + I109(22) + I110(16) >= -1.999999995e+09
 c18: - 50 B12(12) - 60 B13(14) - I111(13) - I112(15) + I113(18) + I114(14)
   >= 0
 c19: - 50 B12(12) - 1.00000006e+09 B13(14) - 1e+09 B14(16) - I111(13)
   - I112(15) + I113(18) + I114(14) >= -1.999999993e+09
 c20: - 70 B14(16) - 80 B15(11) - I113(18) - I114(14) + I115(17) + I116(13)
   >= 0
 c21: - 1.00000007e+09 B14(16) - 80 B15(11) - 1e+09 B16(14) - I113(18)
   - I114(14) + I115(17) + I116(13) >= -1.999999994e+09
 c22: - 70 B14(16) - 1.00000008e+09 B15(11) - 1e+09 B17(10) - I113(18)
   - I114(14) + I115(17) + I116(13) >= -1.999999993e+09
 c23: - 1e+09 B0(16) + I99(16) <= 0
 c24: - 1e+09 B1(24) + I100(24) <= 0
 c25: - 1e+09 B2(16) + I101(18) <= 0
 c26: - 1e+09 B3(24) + I102(26) <= 0
 c27: - 1e+09 B4(23) + I103(24) <= 0
 c28: - 1e+09 B5(12) + I104(14) <= 0
 c29: - 1e+09 B6(15) + I105(15) <= 0
 c30: - 1e+09 B7(15) + I106(15) <= 0
 c31: - 1e+09 B8(16) + I107(17) <= 0
 c32: - 1e+09 B9(21) + I108(23) <= 0
 c33: - 1e+09 B10(21) + I109(22) <= 0
 c34: - 1e+09 B11(14) + I110(16) <= 0
 c35: - 1e+09 B12(12) + I111(13) <= 0
 c36: - 1e+09 B13(14) + I112(15) <= 0
 c37: - 1e+09 B14(16) + I113(18) <= 0
 c38: - 1e+09 B15(11) + I114(14) <= 0
 c39: - 1e+09 B16(14) + I115(17) <= 0
 c40: - 1e+09 B17(10) + I116(13) <= 0
 c41: - 1e+09 B0(16) - 1e+09 B2(16) - 1e+09 B19(4) + I99(16) - I101(18)
   >= -2.999999953e+09
 c42: - 1e+09 B0(16) - 1e+09 B2(16) + 1e+09 B19(4) - I99(16) + I101(18)
   >= -1.999999976e+09
 c43: - 1e+09 B1(24) - 1e+09 B3(24) - 1e+09 B19(4) + I100(24) - I102(26)
   >= -2.999999965e+09
 c44: - 1e+09 B1(24) - 1e+09 B3(24) + 1e+09 B19(4) - I100(24) + I102(26)
   >= -1.99999997e+09
 c45: - 1e+09 B1(24) - 1e+09 B4(23) - 1e+09 B20(2) + I100(24) - I103(24)
   >= -2.999999944e+09
 c46: - 1e+09 B1(24) - 1e+09 B4(23) + 1e+09 B20(2) - I100(24) + I103(24)
   >= -1.999999969e+09
 c47: - 1e+09 B0(16) - 1e+09 B6(15) - 1e+09 B21(2) + I99(16) - I105(15)
   >= -2.999999964e+09
 c48: - 1e+09 B0(16) - 1e+09 B6(15) + 1e+09 B21(2) - I99(16) + I105(15)
   >= -1.999999978e+09
 c49: - 1e+09 B0(16) - 1e+09 B8(16) - 1e+09 B22(4) + I99(16) - I107(17)
   >= -2.999999945e+09
 c50: - 1e+09 B0(16) - 1e+09 B8(16) + 1e+09 B22(4) - I99(16) + I107(17)
   >= -1.999999979e+09
 c51: - 1e+09 B1(24) - 1e+09 B9(21) - 1e+09 B22(4) + I100(24) - I108(23)
   >= -2.999999934e+09
 c52: - 1e+09 B1(24) - 1e+09 B9(21) + 1e+09 B22(4) - I100(24) + I108(23)
   >= -1.999999969e+09
 c53: - 1e+09 B1(24) - 1e+09 B10(21) - 1e+09 B23(2) + I100(24) - I109(22)
   >= -2.999999924e+09
 c54: - 1e+09 B1(24) - 1e+09 B10(21) + 1e+09 B23(2) - I100(24) + I109(22)
   >= -1.999999969e+09
 c55: - 1e+09 B0(16) - 1e+09 B12(12) - 1e+09 B24(4) + I99(16) - I111(13)
   >= -2.999999945e+09
 c56: - 1e+09 B0(16) - 1e+09 B12(12) + 1e+09 B24(4) - I99(16) + I111(13)
   >= -1.999999978e+09
 c57: - 1e+09 B1(24) - 1e+09 B13(14) - 1e+09 B24(4) + I100(24) - I112(15)
   >= -2.999999933e+09
 c58: - 1e+09 B1(24) - 1e+09 B13(14) + 1e+09 B24(4) - I100(24) + I112(15)
   >= -1.999999969e+09
 c59: - 1e+09 B1(24) - 1e+09 B14(16) - 1e+09 B25(2) + I100(24) - I113(18)
   >= -2.999999925e+09
 c60: - 1e+09 B1(24) - 1e+09 B14(16) + 1e+09 B25(2) - I100(24) + I113(18)
   >= -1.99999997e+09
 c61: - 1e+09 B1(24) - 1e+09 B16(14) - 1e+09 B26(2) + I100(24) - I115(17)
   >= -2.999999903e+09
 c62: - 1e+09 B1(24) - 1e+09 B16(14) + 1e+09 B26(2) - I100(24) + I115(17)
   >= -1.999999968e+09
 c63: - 1e+09 B0(16) - 1e+09 B2(16) - 1e+09 B27(4) - I99(16) + I101(18)
   >= -2.999999976e+09
 c64: - 1e+09 B0(16) - 1e+09 B2(16) + 1e+09 B27(4) + I99(16) - I101(18)
   >= -1.999999953e+09
 c65: - 1e+09 B1(24) - 1e+09 B3(24) - 1e+09 B27(4) - I100(24) + I102(26)
   >= -2.99999997e+09
 c66: - 1e+09 B1(24) - 1e+09 B3(24) + 1e+09 B27(4) + I100(24) - I102(26)
   >= -1.999999965e+09
 c67: - 1e+09 B3(24) - 1e+09 B4(23) - 1e+09 B29(2) + I102(26) - I103(24)
   >= -2.999999944e+09
 c68: - 1e+09 B3(24) - 1e+09 B4(23) + 1e+09 B29(2) - I102(26) + I103(24)
   >= -1.999999964e+09
 c69: - 1e+09 B2(16) - 1e+09 B6(15) - 1e+09 B30(2) + I101(18) - I105(15)
   >= -2.999999964e+09
 c70: - 1e+09 B2(16) - 1e+09 B6(15) + 1e+09 B30(2) - I101(18) + I105(15)
   >= -1.999999955e+09
 c71: - 1e+09 B2(16) - 1e+09 B8(16) - 1e+09 B31(4) + I101(18) - I107(17)
   >= -2.999999944e+09
 c72: - 1e+09 B2(16) - 1e+09 B8(16) + 1e+09 B31(4) - I101(18) + I107(17)
   >= -1.999999954e+09
 c73: - 1e+09 B3(24) - 1e+09 B9(21) - 1e+09 B31(4) + I102(26) - I108(23)
   >= -2.999999934e+09
 c74: - 1e+09 B3(24) - 1e+09 B9(21) + 1e+09 B31(4) - I102(26) + I108(23)
   >= -1.999999965e+09
 c75: - 1e+09 B3(24) - 1e+09 B10(21) - 1e+09 B32(2) + I102(26) - I109(22)
   >= -2.999999926e+09
 c76: - 1e+09 B3(24) - 1e+09 B10(21) + 1e+09 B32(2) - I102(26) + I109(22)
   >= -1.999999966e+09
 c77: - 1e+09 B2(16) - 1e+09 B12(12) - 1e+09 B33(4) + I101(18) - I111(13)
   >= -2.999999944e+09
 c78: - 1e+09 B2(16) - 1e+09 B12(12) + 1e+09 B33(4) - I101(18) + I111(13)
   >= -1.999999954e+09
 c79: - 1e+09 B3(24) - 1e+09 B13(14) - 1e+09 B33(4) + I102(26) - I112(15)
   >= -2.999999934e+09
 c80: - 1e+09 B3(24) - 1e+09 B13(14) + 1e+09 B33(4) - I102(26) + I112(15)
   >= -1.999999963e+09
 c81: - 1e+09 B3(24) - 1e+09 B14(16) - 1e+09 B34(2) + I102(26) - I113(18)
   >= -2.999999925e+09
 c82: - 1e+09 B3(24) - 1e+09 B14(16) + 1e+09 B34(2) - I102(26) + I113(18)
   >= -1.999999964e+09
 c83: - 1e+09 B3(24) - 1e+09 B16(14) - 1e+09 B35(2) + I102(26) - I115(17)
   >= -2.999999905e+09
 c84: - 1e+09 B3(24) - 1e+09 B16(14) + 1e+09 B35(2) - I102(26) + I115(17)
   >= -1.999999966e+09
 c85: - 1e+09 B1(24) - 1e+09 B4(23) - 1e+09 B36(2) - I100(24) + I103(24)
   >= -2.999999969e+09
 c86: - 1e+09 B1(24) - 1e+09 B4(23) + 1e+09 B36(2) + I100(24) - I103(24)
   >= -1.999999944e+09
 c87: - 1e+09 B3(24) - 1e+09 B4(23) - 1e+09 B37(2) - I102(26) + I103(24)
   >= -2.999999964e+09
 c88: - 1e+09 B3(24) - 1e+09 B4(23) + 1e+09 B37(2) + I102(26) - I103(24)
   >= -1.999999944e+09
 c89: - 1e+09 B5(12) - 1e+09 B7(15) - 1e+09 B39(2) + I104(14) - I106(15)
   >= -2.999999945e+09
 c90: - 1e+09 B5(12) - 1e+09 B7(15) + 1e+09 B39(2) - I104(14) + I106(15)
   >= -1.999999933e+09
 c91: - 1e+09 B4(23) - 1e+09 B9(21) - 1e+09 B40(2) + I103(24) - I108(23)
   >= -2.999999934e+09
 c92: - 1e+09 B4(23) - 1e+09 B9(21) + 1e+09 B40(2) - I103(24) + I108(23)
   >= -1.999999944e+09
 c93: - 1e+09 B4(23) - 1e+09 B10(21) - 1e+09 B41(4) + I103(24) - I109(22)
   >= -2.999999924e+09
 c94: - 1e+09 B4(23) - 1e+09 B10(21) + 1e+09 B41(4) - I103(24) + I109(22)
   >= -1.999999944e+09
 c95: - 1e+09 B5(12) - 1e+09 B11(14) - 1e+09 B41(4) + I104(14) - I110(16)
   >= -2.999999934e+09
 c96: - 1e+09 B5(12) - 1e+09 B11(14) + 1e+09 B41(4) - I104(14) + I110(16)
   >= -1.999999935e+09
 c97: - 1e+09 B4(23) - 1e+09 B13(14) - 1e+09 B42(2) + I103(24) - I112(15)
   >= -2.999999936e+09
 c98: - 1e+09 B4(23) - 1e+09 B13(14) + 1e+09 B42(2) - I103(24) + I112(15)
   >= -1.999999943e+09
 c99: - 1e+09 B4(23) - 1e+09 B14(16) - 1e+09 B43(4) + I103(24) - I113(18)
   >= -2.999999924e+09
 c100: - 1e+09 B4(23) - 1e+09 B14(16) + 1e+09 B43(4) - I103(24) + I113(18)
   >= -1.999999945e+09
 c101: - 1e+09 B5(12) - 1e+09 B15(11) - 1e+09 B43(4) + I104(14) - I114(14)
   >= -2.999999913e+09
 c102: - 1e+09 B5(12) - 1e+09 B15(11) + 1e+09 B43(4) - I104(14) + I114(14)
   >= -1.999999934e+09
 c103: - 1e+09 B4(23) - 1e+09 B16(14) - 1e+09 B44(4) + I103(24) - I115(17)
   >= -2.999999905e+09
 c104: - 1e+09 B4(23) - 1e+09 B16(14) + 1e+09 B44(4) - I103(24) + I115(17)
   >= -1.999999943e+09
 c105: - 1e+09 B5(12) - 1e+09 B17(10) - 1e+09 B44(4) + I104(14) - I116(13)
   >= -2.999999895e+09
 c106: - 1e+09 B5(12) - 1e+09 B17(10) + 1e+09 B44(4) - I104(14) + I116(13)
   >= -1.999999936e+09
 c107: - 1e+09 B6(15) - 1e+09 B8(16) - 1e+09 B49(2) + I105(15) - I107(17)
   >= -2.999999944e+09
 c108: - 1e+09 B6(15) - 1e+09 B8(16) + 1e+09 B49(2) - I105(15) + I107(17)
   >= -1.999999963e+09
 c109: - 1e+09 B7(15) - 1e+09 B11(14) - 1e+09 B50(2) + I106(15) - I110(16)
   >= -2.999999935e+09
 c110: - 1e+09 B7(15) - 1e+09 B11(14) + 1e+09 B50(2) - I106(15) + I110(16)
   >= -1.999999943e+09
 c111: - 1e+09 B6(15) - 1e+09 B12(12) - 1e+09 B51(2) + I105(15) - I111(13)
   >= -2.999999945e+09
 c112: - 1e+09 B6(15) - 1e+09 B12(12) + 1e+09 B51(2) - I105(15) + I111(13)
   >= -1.999999966e+09
 c113: - 1e+09 B7(15) - 1e+09 B15(11) - 1e+09 B52(2) + I106(15) - I114(14)
   >= -2.999999916e+09
 c114: - 1e+09 B7(15) - 1e+09 B15(11) + 1e+09 B52(2) - I106(15) + I114(14)
   >= -1.999999946e+09
 c115: - 1e+09 B7(15) - 1e+09 B17(10) - 1e+09 B53(2) + I106(15) - I116(13)
   >= -2.999999894e+09
 c116: - 1e+09 B7(15) - 1e+09 B17(10) + 1e+09 B53(2) - I106(15) + I116(13)
   >= -1.999999944e+09
 c117: - 1e+09 B6(15) - 1e+09 B8(16) - 1e+09 B57(2) - I105(15) + I107(17)
   >= -2.999999963e+09
 c118: - 1e+09 B6(15) - 1e+09 B8(16) + 1e+09 B57(2) + I105(15) - I107(17)
   >= -1.999999944e+09
 c119: - 1e+09 B9(21) - 1e+09 B10(21) - 1e+09 B59(2) + I108(23) - I109(22)
   >= -2.999999924e+09
 c120: - 1e+09 B9(21) - 1e+09 B10(21) + 1e+09 B59(2) - I108(23) + I109(22)
   >= -1.999999935e+09
 c121: - 1e+09 B8(16) - 1e+09 B12(12) - 1e+09 B60(4) + I107(17) - I111(13)
   >= -2.999999945e+09
 c122: - 1e+09 B8(16) - 1e+09 B12(12) + 1e+09 B60(4) - I107(17) + I111(13)
   >= -1.999999946e+09
 c123: - 1e+09 B9(21) - 1e+09 B13(14) - 1e+09 B60(4) + I108(23) - I112(15)
   >= -2.999999935e+09
 c124: - 1e+09 B9(21) - 1e+09 B13(14) + 1e+09 B60(4) - I108(23) + I112(15)
   >= -1.999999934e+09
 c125: - 1e+09 B9(21) - 1e+09 B14(16) - 1e+09 B61(2) + I108(23) - I113(18)
   >= -2.999999924e+09
 c126: - 1e+09 B9(21) - 1e+09 B14(16) + 1e+09 B61(2) - I108(23) + I113(18)
   >= -1.999999935e+09
 c127: - 1e+09 B9(21) - 1e+09 B16(14) - 1e+09 B62(2) + I108(23) - I115(17)
   >= -2.999999903e+09
 c128: - 1e+09 B9(21) - 1e+09 B16(14) + 1e+09 B62(2) - I108(23) + I115(17)
   >= -1.999999934e+09
 c129: - 1e+09 B7(15) - 1e+09 B11(14) - 1e+09 B66(2) - I106(15) + I110(16)
   >= -2.999999943e+09
 c130: - 1e+09 B7(15) - 1e+09 B11(14) + 1e+09 B66(2) + I106(15) - I110(16)
   >= -1.999999935e+09
 c131: - 1e+09 B9(21) - 1e+09 B10(21) - 1e+09 B67(2) - I108(23) + I109(22)
   >= -2.999999935e+09
 c132: - 1e+09 B9(21) - 1e+09 B10(21) + 1e+09 B67(2) + I108(23) - I109(22)
   >= -1.999999924e+09
 c133: - 1e+09 B10(21) - 1e+09 B13(14) - 1e+09 B69(2) + I109(22) - I112(15)
   >= -2.999999935e+09
 c134: - 1e+09 B10(21) - 1e+09 B13(14) + 1e+09 B69(2) - I109(22) + I112(15)
   >= -1.999999924e+09
 c135: - 1e+09 B10(21) - 1e+09 B14(16) - 1e+09 B70(4) + I109(22) - I113(18)
   >= -2.999999925e+09
 c136: - 1e+09 B10(21) - 1e+09 B14(16) + 1e+09 B70(4) - I109(22) + I113(18)
   >= -1.999999926e+09
 c137: - 1e+09 B11(14) - 1e+09 B15(11) - 1e+09 B70(4) + I110(16) - I114(14)
   >= -2.999999914e+09
 c138: - 1e+09 B11(14) - 1e+09 B15(11) + 1e+09 B70(4) - I110(16) + I114(14)
   >= -1.999999935e+09
 c139: - 1e+09 B10(21) - 1e+09 B16(14) - 1e+09 B71(4) + I109(22) - I115(17)
   >= -2.999999905e+09
 c140: - 1e+09 B10(21) - 1e+09 B16(14) + 1e+09 B71(4) - I109(22) + I115(17)
   >= -1.999999924e+09
 c141: - 1e+09 B11(14) - 1e+09 B17(10) - 1e+09 B71(4) + I110(16) - I116(13)
   >= -2.999999894e+09
 c142: - 1e+09 B11(14) - 1e+09 B17(10) + 1e+09 B71(4) - I110(16) + I116(13)
   >= -1.999999935e+09
 c143: - 11 B0(16) + I99(16) >= 0
 c144: I99(16) >= 0
 c145: - 11 B1(24) + I100(24) >= 0
 c146: I100(24) >= 0
 c147: - 11 B2(16) + I101(18) >= 0
 c148: I101(18) >= 0
 c149: - 11 B3(24) + I102(26) >= 0
 c150: I102(26) >= 0
 c151: - 11 B4(23) + I103(24) >= 0
 c152: I103(24) >= 0
 c153: - 11 B5(12) + I104(14) >= 0
 c154: I104(14) >= 0
 c155: - 8 B6(15) + I105(15) >= 0
 c156: I105(15) >= 0
 c157: - 8 B7(15) + I106(15) >= 0
 c158: I106(15) >= 0
 c159: - 8 B8(16) + I107(17) >= 0
 c160: I107(17) >= 0
 c161: - 8 B9(21) + I108(23) >= 0
 c162: I108(23) >= 0
 c163: - 8 B10(21) + I109(22) >= 0
 c164: I109(22) >= 0
 c165: - 8 B11(14) + I110(16) >= 0
 c166: I110(16) >= 0
 c167: I111(13) >= 0
 c168: I111(13) >= 0
 c169: I112(15) >= 0
 c170: I112(15) >= 0
 c171: I113(18) >= 0
 c172: I113(18) >= 0
 c173: I114(14) >= 0
 c174: I114(14) >= 0
 c175: I115(17) >= 0
 c176: I115(17) >= 0
 c177: I116(13) >= 0
 c178: I116(13) >= 0
 c179: - 50 B4(23) - 60 B5(12) - 70 B10(21) - 60 B11(14) - 90 B16(14)
   - 100 B17(10) - I103(24) - I104(14) - I109(22) - I110(16) - I115(17)
   - I116(13) + I117(1) = 0
Bounds
Binaries
 B0(16) B1(24) B2(16) B3(24) B4(23) B5(12) B6(15) B7(15) B8(16) B9(21)
 B10(21) B11(14) B12(12) B13(14) B14(16) B15(11) B16(14) B17(10) B18(0)
 B19(4) B20(2) B21(2) B22(4) B23(2) B24(4) B25(2) B26(2) B27(4) B28(0)
 B29(2) B30(2) B31(4) B32(2) B33(4) B34(2) B35(2) B36(2) B37(2) B38(0)
 B39(2) B40(2) B41(4) B42(2) B43(4) B44(4) B45(0) B46(0) B47(0) B48(0)
 B49(2) B50(2) B51(2) B52(2) B53(2) B54(0) B55(0) B56(0) B57(2) B58(0)
 B59(2) B60(4) B61(2) B62(2) B63(0) B64(0) B65(0) B66(2) B67(2) B68(0)
 B69(2) B70(4) B71(4) B72(0) B73(0) B74(0) B75(0) B76(0) B77(0) B78(0)
 B79(0) B80(0) B81(0) B82(0) B83(0) B84(0) B85(0) B86(0) B87(0) B88(0)
 B89(0) B90(0) B91(0) B92(0) B93(0) B94(0) B95(0) B96(0) B97(0) B98(0)
Generals
 I99(16) I100(24) I101(18) I102(26) I103(24) I104(14) I105(15) I106(15)
 I107(17) I108(23) I109(22) I110(16) I111(13) I112(15) I113(18) I114(14)
 I115(17) I116(13) I117(1)
End
